(set-logic QF_LRA)
(declare-fun X0 () Real )
(declare-fun Y0 () Real )
(declare-fun X1 () Real )
(declare-fun Y1 () Real )
(declare-fun X2 () Real )
(declare-fun Y2 () Real )
(declare-fun X3 () Real )
(declare-fun Y3 () Real )
(declare-fun X4 () Real )
(declare-fun Y4 () Real )
(declare-fun X5 () Real )
(declare-fun Y5 () Real )
(declare-fun X6 () Real )
(declare-fun Y6 () Real )
(declare-fun X7 () Real )
(declare-fun Y7 () Real )
(declare-fun X8 () Real )
(declare-fun Y8 () Real )
(declare-fun Z () Real )
(assert ( and  
( or ( <= ( + X0 3 ) X1 )  ( <= ( + X1 26 ) X0 )  ( <= ( + Y0 56 ) Y1 )  ( <= ( + Y1 40 ) Y0 )  )
( or ( <= ( + X0 3 ) X2 )  ( <= ( + X2 10 ) X0 )  ( <= ( + Y0 56 ) Y2 )  ( <= ( + Y2 72 ) Y0 )  )
( or ( <= ( + X0 3 ) X3 )  ( <= ( + X3 14 ) X0 )  ( <= ( + Y0 56 ) Y3 )  ( <= ( + Y3 96 ) Y0 )  )
( or ( <= ( + X0 3 ) X4 )  ( <= ( + X4 19 ) X0 )  ( <= ( + Y0 56 ) Y4 )  ( <= ( + Y4 8 ) Y0 )  )
( or ( <= ( + X0 3 ) X5 )  ( <= ( + X5 52 ) X0 )  ( <= ( + Y0 56 ) Y5 )  ( <= ( + Y5 44 ) Y0 )  )
( or ( <= ( + X0 3 ) X6 )  ( <= ( + X6 94 ) X0 )  ( <= ( + Y0 56 ) Y6 )  ( <= ( + Y6 100 ) Y0 )  )
( or ( <= ( + X0 3 ) X7 )  ( <= ( + X7 85 ) X0 )  ( <= ( + Y0 56 ) Y7 )  ( <= ( + Y7 14 ) Y0 )  )
( or ( <= ( + X0 3 ) X8 )  ( <= ( + X8 30 ) X0 )  ( <= ( + Y0 56 ) Y8 )  ( <= ( + Y8 23 ) Y0 )  )
( or ( <= ( + X1 26 ) X2 )  ( <= ( + X2 10 ) X1 )  ( <= ( + Y1 40 ) Y2 )  ( <= ( + Y2 72 ) Y1 )  )
( or ( <= ( + X1 26 ) X3 )  ( <= ( + X3 14 ) X1 )  ( <= ( + Y1 40 ) Y3 )  ( <= ( + Y3 96 ) Y1 )  )
( or ( <= ( + X1 26 ) X4 )  ( <= ( + X4 19 ) X1 )  ( <= ( + Y1 40 ) Y4 )  ( <= ( + Y4 8 ) Y1 )  )
( or ( <= ( + X1 26 ) X5 )  ( <= ( + X5 52 ) X1 )  ( <= ( + Y1 40 ) Y5 )  ( <= ( + Y5 44 ) Y1 )  )
( or ( <= ( + X1 26 ) X6 )  ( <= ( + X6 94 ) X1 )  ( <= ( + Y1 40 ) Y6 )  ( <= ( + Y6 100 ) Y1 )  )
( or ( <= ( + X1 26 ) X7 )  ( <= ( + X7 85 ) X1 )  ( <= ( + Y1 40 ) Y7 )  ( <= ( + Y7 14 ) Y1 )  )
( or ( <= ( + X1 26 ) X8 )  ( <= ( + X8 30 ) X1 )  ( <= ( + Y1 40 ) Y8 )  ( <= ( + Y8 23 ) Y1 )  )
( or ( <= ( + X2 10 ) X3 )  ( <= ( + X3 14 ) X2 )  ( <= ( + Y2 72 ) Y3 )  ( <= ( + Y3 96 ) Y2 )  )
( or ( <= ( + X2 10 ) X4 )  ( <= ( + X4 19 ) X2 )  ( <= ( + Y2 72 ) Y4 )  ( <= ( + Y4 8 ) Y2 )  )
( or ( <= ( + X2 10 ) X5 )  ( <= ( + X5 52 ) X2 )  ( <= ( + Y2 72 ) Y5 )  ( <= ( + Y5 44 ) Y2 )  )
( or ( <= ( + X2 10 ) X6 )  ( <= ( + X6 94 ) X2 )  ( <= ( + Y2 72 ) Y6 )  ( <= ( + Y6 100 ) Y2 )  )
( or ( <= ( + X2 10 ) X7 )  ( <= ( + X7 85 ) X2 )  ( <= ( + Y2 72 ) Y7 )  ( <= ( + Y7 14 ) Y2 )  )
( or ( <= ( + X2 10 ) X8 )  ( <= ( + X8 30 ) X2 )  ( <= ( + Y2 72 ) Y8 )  ( <= ( + Y8 23 ) Y2 )  )
( or ( <= ( + X3 14 ) X4 )  ( <= ( + X4 19 ) X3 )  ( <= ( + Y3 96 ) Y4 )  ( <= ( + Y4 8 ) Y3 )  )
( or ( <= ( + X3 14 ) X5 )  ( <= ( + X5 52 ) X3 )  ( <= ( + Y3 96 ) Y5 )  ( <= ( + Y5 44 ) Y3 )  )
( or ( <= ( + X3 14 ) X6 )  ( <= ( + X6 94 ) X3 )  ( <= ( + Y3 96 ) Y6 )  ( <= ( + Y6 100 ) Y3 )  )
( or ( <= ( + X3 14 ) X7 )  ( <= ( + X7 85 ) X3 )  ( <= ( + Y3 96 ) Y7 )  ( <= ( + Y7 14 ) Y3 )  )
( or ( <= ( + X3 14 ) X8 )  ( <= ( + X8 30 ) X3 )  ( <= ( + Y3 96 ) Y8 )  ( <= ( + Y8 23 ) Y3 )  )
( or ( <= ( + X4 19 ) X5 )  ( <= ( + X5 52 ) X4 )  ( <= ( + Y4 8 ) Y5 )  ( <= ( + Y5 44 ) Y4 )  )
( or ( <= ( + X4 19 ) X6 )  ( <= ( + X6 94 ) X4 )  ( <= ( + Y4 8 ) Y6 )  ( <= ( + Y6 100 ) Y4 )  )
( or ( <= ( + X4 19 ) X7 )  ( <= ( + X7 85 ) X4 )  ( <= ( + Y4 8 ) Y7 )  ( <= ( + Y7 14 ) Y4 )  )
( or ( <= ( + X4 19 ) X8 )  ( <= ( + X8 30 ) X4 )  ( <= ( + Y4 8 ) Y8 )  ( <= ( + Y8 23 ) Y4 )  )
( or ( <= ( + X5 52 ) X6 )  ( <= ( + X6 94 ) X5 )  ( <= ( + Y5 44 ) Y6 )  ( <= ( + Y6 100 ) Y5 )  )
( or ( <= ( + X5 52 ) X7 )  ( <= ( + X7 85 ) X5 )  ( <= ( + Y5 44 ) Y7 )  ( <= ( + Y7 14 ) Y5 )  )
( or ( <= ( + X5 52 ) X8 )  ( <= ( + X8 30 ) X5 )  ( <= ( + Y5 44 ) Y8 )  ( <= ( + Y8 23 ) Y5 )  )
( or ( <= ( + X6 94 ) X7 )  ( <= ( + X7 85 ) X6 )  ( <= ( + Y6 100 ) Y7 )  ( <= ( + Y7 14 ) Y6 )  )
( or ( <= ( + X6 94 ) X8 )  ( <= ( + X8 30 ) X6 )  ( <= ( + Y6 100 ) Y8 )  ( <= ( + Y8 23 ) Y6 )  )
( or ( <= ( + X7 85 ) X8 )  ( <= ( + X8 30 ) X7 )  ( <= ( + Y7 14 ) Y8 )  ( <= ( + Y8 23 ) Y7 )  )
( >= X0 0)
( <= ( + X0 3) Z)
( >= Y0 0)
( <= ( + Y0 56 ) 100)
( >= X1 0)
( <= ( + X1 26) Z)
( >= Y1 0)
( <= ( + Y1 40 ) 100)
( >= X2 0)
( <= ( + X2 10) Z)
( >= Y2 0)
( <= ( + Y2 72 ) 100)
( >= X3 0)
( <= ( + X3 14) Z)
( >= Y3 0)
( <= ( + Y3 96 ) 100)
( >= X4 0)
( <= ( + X4 19) Z)
( >= Y4 0)
( <= ( + Y4 8 ) 100)
( >= X5 0)
( <= ( + X5 52) Z)
( >= Y5 0)
( <= ( + Y5 44 ) 100)
( >= X6 0)
( <= ( + X6 94) Z)
( >= Y6 0)
( <= ( + Y6 100 ) 100)
( >= X7 0)
( <= ( + X7 85) Z)
( >= Y7 0)
( <= ( + Y7 14 ) 100)
( >= X8 0)
( <= ( + X8 30) Z)
( >= Y8 0)
( <= ( + Y8 23 ) 100)
) )
(minimize Z)
(check-sat)
